! B3LYP 6-31+G(d,p) NumFreq
%elprop Polar 1 end

* xyz 0 1
C    0.000000    0.000000    0.000000
H    0.629118    0.629118    0.629118
H   -0.629118   -0.629118    0.629118
H   -0.629118    0.629118   -0.629118
H    0.629118   -0.629118   -0.629118
*
