! B3LYP 6-311+G(2d,p) AutoAux DEFGRID2 TIGHTSCF D3BJ

* xyz 0 1
O    0.000000    0.000000    0.000000
H    0.757000    0.586000    0.000000
H   -0.757000    0.586000    0.000000
*
