! B3LYP 6-31+G(d,p) NumFreq
%elprop Polar 1 end

* xyz 0 1
O         -3.36449        1.88995        0.00000
H         -2.65421        1.66944        0.59108
H         -3.07807        2.56857       -0.59996
*
