! B3LYP 6-311+G(2d,p) AutoAux DEFGRID2 TIGHTSCF D3BJ

* xyz 0 1
O   -1.160000   0.000000   0.000000
C    0.000000   0.000000   0.000000
O    1.160000   0.000000   0.000000
*
