! B3LYP 6-31+G(d,p) NumFreq
%elprop Polar 1 end

* xyz 0 1
O   -1.160000   0.000000   0.000000
C    0.000000   0.000000   0.000000
O    1.160000   0.000000   0.000000
*
