! B3LYP 6-311+G(2d,p) AutoAux DEFGRID2 TIGHTSCF D3BJ

* xyz 0 1
C    0.000000    0.000000    0.000000
H    0.629118    0.629118    0.629118
H   -0.629118   -0.629118    0.629118
H   -0.629118    0.629118   -0.629118
H    0.629118   -0.629118   -0.629118
*
