!B3LYP 6-31+G(d,p) OPT DEFGRID2 TIGHTSCF D3BJ PAL8
!geom
  iter 200
end
* xyz 0 1
O        0.000000       0.000000       0.000000
H        0.757000       0.586000       0.000000
H       -0.757000       0.586000       0.000000
*

