! B3LYP 6-311+G(2d,p) AutoAux DEFGRID2 TIGHTSCF D3BJ
%pal nprocs 8 end
# Opcional: NMR directo en lugar de EPRNMR
# ! NMR

* xyz 0 1
O        0.000000       0.000000       0.000000
H        0.757000       0.586000       0.000000
H       -0.757000       0.586000       0.000000
*

%EPRNMR
  # Calcula blindajes para todos los núcleos (incluye 1H y 13C).
  # Si quisieras limitar: NUCLEI = H, C
  NUCLEI = ALL {sSall}
END

