# avogadro generated ORCA input file
# Basic Mode
#
! B3LYP 6-31+G(d,p) NumFreq DEFGRID2 TIGHTSCF D3BJ PAL8
%elprop Polar 1 end
* xyz 0 1
O        0.000000       0.000000       0.000000
H        0.757000       0.586000       0.000000
H       -0.757000       0.586000       0.000000
*

