# avogadro generated ORCA input file
# Basic Mode
#
! B3LYP 6-31+G(d,p) NumFreq DEFGRID2 TIGHTSCF D3BJ PAL8
%elprop Polar 1 end
* xyz 0 1
C  -0.30663  -0.03507  -0.18989
C  -0.99393  -0.08508  -1.41472
C  -2.37155  -0.29068  -1.44429
C  -3.08460  -0.45155  -0.25228
C  -2.39790  -0.40285   0.96295
C  -1.01668  -0.19623   1.01010
C   1.99622   0.26412   0.78757
C   3.43355   0.49757   0.34951
N   1.08823   0.17849  -0.24425
O   1.69766   0.16031   1.97212
H  -0.44544   0.03925  -2.34620
H  -2.88594  -0.32549  -2.40024
H  -4.15815  -0.61184  -0.27076
H  -2.99322  -0.52668   1.89564
H  -0.48825  -0.15888   1.95187
H   4.04434  -0.33834   0.70325
H   3.56100   0.59819  -0.07396
H   3.80201   1.40470   0.87949
H   1.46537   0.28070  -1.17534
*
