!B3LYP 6-31+G(d,p) OPT DEFGRID2 TIGHTSCF D3BJ PAL8
!geom
  iter 200
end
* xyz 0 1
C  -0.30784  -0.03631  -0.18571
C  -0.99415  -0.08270  -1.40959
C  -2.36976  -0.28843  -1.44267
C  -3.08407  -0.45141  -0.25418
C  -2.40061  -0.40497   0.96054
C  -1.02103  -0.19940   1.01040
C   1.99835   0.26605   0.78811
C   3.43481   0.49751   0.34624
N   1.08695   0.17613  -0.23925
O   1.70514   0.16930   1.96990
H  -0.44454   0.04343  -2.34012
H  -2.88202  -0.32103  -2.39973
H  -4.15736  -0.61209  -0.27643
H  -2.94405  -0.53018   1.89268
H  -0.49557  -0.16382   1.95377
H   4.04718   0.33523   0.70499
H   3.56209   0.95183  -0.02281
H   3.80389   1.40743   0.88281
H   1.46260   0.27469  -1.17059
*
