! B3LYP 6-31+G(d,p) OPT DEFGRID2 TIGHTSCF D3BJ PAL8

* xyz 0 1
C    0.000000    1.402720    0.000000
H    0.000000    2.490290    0.000000
C   -1.214790    0.701360    0.000000
H   -2.156660    1.245150    0.000000
C   -1.214790   -0.701360    0.000000
H   -2.156660   -1.245150    0.000000
C    0.000000   -1.402720    0.000000
H    0.000000   -2.490290    0.000000
C    1.214790   -0.701360    0.000000
H    2.156660   -1.245150    0.000000
C    1.214790    0.701360    0.000000
H    2.156660    1.245150    0.000000
*
